Input: ticf-13crafb.prec15.dzn
============================================================
Total Runtime: 9.9160 seconds
Input parsing: 0.0016 seconds
Constraint building: 1.9491 seconds
MaxSAT solving: 6.7860 seconds
============================================================

Total variables: 527367
Total clauses: 881527
MaxSAT found with cost: 0
NO SOLUTION FOUND
